\ Model LinearProblem
\ LP format - for model browsing. Use MPS format to capture full model detail.
Maximize
  3 x + 5 y + 4 z
Subject To
 c0: 2 x + 3 y <= 15
 c1: 2 y + 4 z <= 8
 c2: 3 x + 2 y + 5 z >= 2
Bounds
End
